p tdp 62 61
13 49
21 61
24 60
8 62
41 35
34 53
24 51
37 27
36 40
59 28
18 14
19 28
16 18
6 58
4 56
52 43
22 39
29 10
20 3
47 33
6 1
7 12
43 7
7 53
28 30
22 46
58 24
31 11
18 17
26 55
40 34
61 5
50 20
62 11
61 18
45 42
4 54
28 38
53 29
8 22
49 32
25 27
23 26
4 15
10 47
8 21
2 38
9 12
32 41
40 35
4 31
20 57
48 27
44 56
24 26
19 26
24 50
42 29
55 25
41 55
5 24
